p cnf 165 201
-1 -2 -3 72 81 112 129 159 -160 -161 0 
-4 22 26 28 48 62 79 122 144 -1 160 -159 -161 0 
-5 56 66 -6 73 160 -159 -161 0 
-7 124 147 160 -159 -161 0 
-8 35 102 118 160 -159 -161 0 
-9 13 77 119 -5 56 66 160 -159 -161 0 
-10 54 100 125 142 160 -159 -161 0 
-11 29 160 -159 -161 0 
-12 41 44 160 -159 -161 0 
-13 9 77 119 160 -159 -161 0 
-5 56 66 160 -159 -161 0 
-14 89 106 113 -15 84 -16 85 110 134 -17 148 160 -159 -161 0 
-6 73 159 -160 -161 0 
-18 83 87 92 160 -159 -161 0 
-19 160 -159 -161 0 
-20 27 32 76 82 123 160 -159 -161 0 
-6 73 160 -159 -161 0 
-21 160 -159 -161 0 
-22 4 26 28 48 62 79 122 144 160 -159 -161 0 
-23 160 -159 -161 0 
-24 160 -159 -161 0 
-25 70 104 160 -159 -161 0 
-26 4 22 28 48 62 79 122 144 159 -160 -161 0 
-27 20 32 76 82 123 159 -160 -161 0 
-28 4 22 26 48 62 79 122 144 161 -159 -160 0 
-29 11 161 -159 -160 0 
-30 137 -31 -32 20 27 76 82 123 -33 160 -159 -161 0 
-34 93 -35 8 102 118 -4 22 26 28 48 62 79 122 144 160 -159 -161 0 
-36 151 -37 160 -159 -161 0 
-38 160 -159 -161 0 
-39 71 94 152 -1 160 -159 -161 0 
-40 -1 160 -159 -161 0 
-41 12 44 -14 89 106 113 160 -159 -161 0 
-42 -1 160 -159 -161 0 
-43 162 -159 -160 -161 -105 0 
-44 12 41 161 -159 -160 0 
-45 58 109 160 -159 -161 0 
-46 53 160 -159 -161 0 
-1 160 -159 -161 0 
-47 90 -5 56 66 160 -159 -161 0 
-8 35 102 118 -45 58 109 160 -159 -161 0 
-48 4 22 26 28 62 79 122 144 160 -159 -161 0 
-49 111 120 127 136 157 158 160 -159 -161 0 
-40 -50 -51 160 -159 -161 0 
-50 -52 55 160 -159 -161 0 
-7 124 147 -53 46 160 -159 -161 0 
-54 10 100 125 142 -40 -1 160 -159 -161 0 
-7 124 147 -39 71 94 152 -1 160 -159 -161 0 
-55 52 -56 5 66 -1 162 -159 -160 -161 -105 0 
-57 103 -58 45 109 160 -159 -161 0 
-7 124 147 -5 56 66 -1 160 -159 -161 0 
-59 -60 160 -159 -161 0 
-11 29 -1 160 -159 -161 0 
-61 159 -160 -161 0 
-1 161 -159 -160 0 
-41 12 44 -6 73 159 -160 -161 0 
-62 4 22 26 28 48 79 122 144 160 -159 -161 0 
-63 -44 12 41 161 -159 -160 0 
-64 -65 160 -159 -161 0 
-5 56 66 -65 160 -159 -161 0 
-65 162 -159 -160 -161 -105 0 
-65 160 -159 -161 0 
-66 5 56 -23 -65 160 -159 -161 0 
-39 71 94 152 -65 160 -159 -161 0 
-9 13 77 119 -5 56 66 -65 160 -159 -161 0 
-67 -65 160 -159 -161 0 
-2 -65 160 -159 -161 0 
-1 -2 159 -160 -161 0 
-68 161 -159 -160 0 
-7 124 147 -5 56 66 -65 160 -159 -161 0 
-69 135 160 -159 -161 0 
-70 25 104 160 -159 -161 0 
-35 8 102 118 -5 56 66 160 -159 -161 0 
-9 13 77 119 -5 56 66 -1 160 -159 -161 0 
-71 39 94 152 160 -159 -161 0 
-72 3 81 112 129 160 -159 -161 0 
-56 5 66 -73 6 162 -159 -160 -161 -105 0 
-74 86 126 138 160 -159 -161 0 
-70 25 104 -1 160 -159 -161 0 
-41 12 44 160 -159 -161 0 
-75 160 -159 -161 0 
-18 83 87 92 -66 5 56 -40 -1 160 -159 -161 0 
-76 20 27 32 82 123 -72 3 81 112 129 160 -159 -161 0 
-31 -39 71 94 152 -77 9 13 119 -7 124 147 -1 160 -159 -161 0 
-78 -63 -23 -40 160 -159 -161 0 
-39 71 94 152 -63 -79 4 22 26 28 48 62 122 144 -7 124 147 -1 160 -159 -161 0 
-80 -1 160 -159 -161 0 
-81 3 72 112 129 160 -159 -161 0 
-18 83 87 92 -82 20 27 32 76 123 160 -159 -161 0 
-83 18 87 92 -84 15 -85 16 110 134 159 -160 -161 0 
-86 74 126 138 160 -159 -161 0 
-87 18 83 92 159 -160 -161 0 
-35 8 102 118 159 -160 -161 0 
-43 -79 4 22 26 28 48 62 122 144 -54 10 100 125 142 162 -159 -160 -161 -105 0 
-39 71 94 152 -85 16 110 134 160 -159 -161 0 
-88 -85 16 110 134 -17 148 160 -159 -161 0 
-89 14 106 113 162 -159 -160 -161 -105 0 
-90 47 160 -159 -161 0 
-58 45 109 160 -159 -161 0 
-57 103 160 -159 -161 0 
-91 141 146 -85 16 110 134 160 -159 -161 0 
-92 18 83 87 160 -159 -161 0 
-93 34 160 -159 -161 0 
-94 39 71 152 161 -159 -160 0 
-95 115 -43 162 -159 -160 -161 -105 0 
-96 -43 -97 162 -159 -160 -161 -105 0 
-97 -43 -98 162 -159 -160 -161 -105 0 
-99 -100 10 54 125 142 160 -159 -161 0 
-1 159 -160 -161 0 
-43 -101 -54 10 100 125 142 162 -159 -160 -161 -105 0 
-97 -18 83 87 92 -43 162 -159 -160 -161 -105 0 
-102 8 35 118 160 -159 -161 0 
-23 162 -159 -160 -161 -105 0 
-103 57 -104 25 70 160 -159 -161 0 
-105 160 -159 -161 0 
-43 -54 10 100 125 142 162 -159 -160 -161 -105 0 
-40 -2 -106 14 89 113 160 -159 -161 0 
-40 -65 160 -159 -161 0 
-1 -2 161 -159 -160 0 
-21 160 -159 -161 0 
-68 161 -159 -160 0 
-66 5 56 -23 -1 160 -159 -161 0 
-107 121 150 -1 159 -160 -161 0 
-101 -108 -17 148 159 -160 -161 0 
-64 -1 160 -159 -161 0 
-5 56 66 -1 160 -159 -161 0 
-1 162 -159 -160 -161 -105 0 
-109 45 58 160 -159 -161 0 
-64 -6 73 -110 16 85 134 -111 49 120 127 136 157 158 160 -159 -161 0 
-112 3 72 81 129 160 -159 -161 0 
-72 3 81 112 129 160 -159 -161 0 
-45 58 109 160 -159 -161 0 
-6 73 -113 14 89 106 160 -159 -161 0 
-114 149 160 -159 -161 0 
-58 45 109 160 -159 -161 0 
-115 95 -116 159 -160 -161 0 
-117 -118 8 35 102 161 -159 -160 0 
-119 9 13 77 -120 49 111 127 136 157 158 161 -159 -160 0 
-121 107 150 159 -160 -161 0 
-122 4 22 26 28 48 62 79 144 159 -160 -161 0 
-101 -43 -34 93 162 -159 -160 -161 -105 0 
-123 20 27 32 76 82 160 -159 -161 0 
-4 22 26 28 48 62 79 122 144 160 -159 -161 0 
-12 41 44 -1 160 -159 -161 0 
-124 7 147 160 -159 -161 0 
-77 9 13 119 160 -159 -161 0 
-66 5 56 160 -159 -161 0 
-125 10 54 100 142 160 -159 -161 0 
-11 29 -6 73 160 -159 -161 0 
-126 74 86 138 160 -159 -161 0 
-109 45 58 160 -159 -161 0 
-58 45 109 160 -159 -161 0 
-109 45 58 160 -159 -161 0 
-58 45 109 160 -159 -161 0 
-67 -1 160 -159 -161 0 
-41 12 44 -1 159 -160 -161 0 
-69 135 160 -159 -161 0 
-65 -127 49 111 120 136 157 158 161 -159 -160 0 
-128 -2 -65 -129 3 72 81 112 159 -160 -161 0 
-130 159 -160 -161 0 
-131 163 -159 -160 -161 0 
-132 -133 -134 16 85 110 -135 69 164 -159 -160 -161 0 
-136 49 111 120 127 157 158 160 -159 -161 0 
-1 -6 73 160 -159 -161 0 
-128 -1 -129 3 72 81 112 159 -160 -161 0 
-131 163 -159 -160 -161 0 
-2 -6 73 -135 69 164 -159 -160 -161 0 
-18 83 87 92 -95 115 -43 162 -159 -160 -161 -105 0 
-43 -137 30 162 -159 -160 -161 -105 0 
-138 74 86 126 -5 56 66 160 -159 -161 0 
-139 162 -159 -160 -161 -105 0 
-11 29 -140 159 -160 -161 0 
-141 91 146 159 -160 -161 0 
-142 10 54 100 125 159 -160 -161 0 
-143 159 -160 -161 0 
-144 4 22 26 28 48 62 79 122 160 -159 -161 0 
-145 -146 91 141 161 -159 -160 0 
-147 7 124 160 -159 -161 0 
-1 -85 16 110 134 -148 17 165 -159 -160 -161 0 
-149 114 160 -159 -161 0 
-64 160 -159 -161 0 
-150 107 121 159 -160 -161 0 
-35 8 102 118 -6 73 160 -159 -161 0 
-11 29 -151 36 160 -159 -161 0 
-33 160 -159 -161 0 
-21 160 -159 -161 0 
-40 160 -159 -161 0 
-114 149 160 -159 -161 0 
-152 39 71 94 160 -159 -161 0 
-18 83 87 92 -43 -153 -154 162 -159 -160 -161 -105 0 
-43 -155 162 -159 -160 -161 -105 0 
-103 57 160 -159 -161 0 
-97 -105 -43 160 -159 -161 0 
-11 29 -43 162 -159 -160 -161 -105 0 
-156 -43 162 -159 -160 -161 -105 0 
-66 5 56 -23 -157 49 111 120 127 136 158 160 -159 -161 0 
-42 162 -159 -160 -161 -105 0 
-97 -43 162 -159 -160 -161 -105 0 
-43 -98 162 -159 -160 -161 -105 0 
-60 160 -159 -161 0 
-158 49 111 120 127 136 157 159 -160 -161 0 
